Traveling Salesman Problem/TSP_generados/Aleatorio1621103354_11.tsp
NAME: Aleatorio1621103354_11.tsp
COMMENT: Randomly generated scenario
TYPE: TSP
DIMENSION: 11
EDGE_WEIGHT_TYPE: ATT
NODE_COORD_SECTION
1 0.35 24.15
2 32.85 6.46
3 18.3 30.01
4 29.16 46.33
5 26.66 4.5
6 7.57 23.93
7 11.07 36.03
8 17.76 16.04
9 4.68 0.23
10 0.27 31.85
11 14.36 12.99
