Traveling Salesman Problem/TSP_generados/Aleatorio1621103354_11.opt.tour
NAME: Aleatorio1621103354_11.opt.tour
COMMENT: Optimal solution for Aleatorio1621103354_11 (156.55482117160489)
TYPE: TOUR
DIMENSION: 11
TOUR_SECTION
1 6 11 9 5 2 8 3 4 7 10
-1
EOF
